32	0

0	3	2	3	4
10	1	8
5	3	6	7	9
2	3	5	6	9
5	1	7
3	1	8
3	1	8
3	4	10	11	12	14
8	4	10	11	12	14
9	2	19	25
5	4	15	16	17	18
1	1	13
4	4	15	16	17	18
7	4	17	19	22	25
5	5	20	21	23	24	25
3	3	19	22	25
10	4	20	21	23	24
7	5	20	21	23	24	25
8	4	20	21	23	24
10	1	28
2	3	26	27	29
10	3	26	27	29
9	2	27	28
1	3	26	27	29
8	3	27	28	29
10	1	28
10	1	31
4	1	30
10	1	30
3	1	31
6	1	32
0	0
